(set-info :status unknown)
(set-info :source |Alberto Griggio <griggio@fbk.eu>. These benchmarks were used for the evaluation in the following paper: L. Haller, A. Griggio, M. Brain, D. Kroening: Deciding floating-point logic with systematic abstraction. FMCAD 2012.)|)
(set-logic QF_FPBV)
(declare-fun b11 () (_ FloatingPoint 8 24))
(declare-fun b10 () (_ FloatingPoint 8 24))
(declare-fun b20 () (_ FloatingPoint 8 24))
(declare-fun b14 () (_ FloatingPoint 8 24))
(declare-fun b17 () (_ FloatingPoint 8 24))
(declare-fun b34 () (_ FloatingPoint 8 24))
(define-fun .3 () RoundingMode roundNearestTiesToEven)
(define-fun .9 () (_ FloatingPoint 8 24) b11)
(define-fun .10 () (_ FloatingPoint 8 24) b34)
(define-fun .11 () Bool (fp.lt .9 .10))
(define-fun .12 () (_ FloatingPoint 8 24) b10)
(define-fun .13 () (_ FloatingPoint 8 24) (fp.div .3 .12 .9))
(define-fun .14 () (_ FloatingPoint 8 24) b14)
(define-fun .15 () (_ FloatingPoint 8 24) (fp.div .3 .13 .14))
(define-fun .16 () (_ FloatingPoint 8 24) b17)
(define-fun .17 () (_ FloatingPoint 8 24) (fp.div .3 .15 .16))
(define-fun .18 () (_ FloatingPoint 8 24) b20)
(define-fun .19 () Bool (fp.lt .17 .18))
(define-fun .20 () Bool (and .11 .19))
(define-fun .21 () Bool (fp.leq .18 .9))
(define-fun .22 () Bool (and .20 .21))
(define-fun .23 () Bool (fp.lt .14 .10))
(define-fun .24 () Bool (and .22 .23))
(define-fun .25 () Bool (fp.leq .18 .14))
(define-fun .26 () Bool (and .24 .25))
(define-fun .27 () Bool (fp.lt .16 .10))
(define-fun .28 () Bool (and .26 .27))
(define-fun .29 () Bool (fp.leq .18 .16))
(define-fun .30 () Bool (and .28 .29))
(assert .30)
(check-sat)
